certificates/rado_a14_c130_N33.drat
-29 -33 0
d -29 -9 -33 0
8 -30 29 0
-8 -31 -32 29 0
-31 -32 -33 0
-11 -32 -33 0
-32 -33 0
d -11 -32 -33 0
d -31 -32 -33 0
11 -33 0
-33 0
9 -11 0
-11 0
9 0
-5 0
-13 0
29 0
-25 0
1 0
-8 0
26 0
31 0
15 0
32 0
23 0
7 0
-30 0
-22 0
-27 0
-19 0
-28 0
-3 0
12 0
6 0
4 0
0
